param baseMVA := 100;
param: bus_i: type	Pd	    Qd   Gs	Bs	area	Vm	    Va	  baseKV	zone	Vmax	Vmin := 
	1	    3	    0.00	    0.00     0	0	1	    1.0    	0	    230	    1	    1.05	.95
	2	    1	    1.30        .20      0	0	1	    1.0     0       230	    1       1.05 	.95
    3	    1	    1.30        .20      0	0	1	    1.0     0       230	    1       1.05 	.95
    4	    1	    .65         .10      0	0	1	    1.0     0       230	    1       1.05 	.95
    5	    2	    0           0        0	0	1	    1.0     0       230	    1       1.05 	.95
;

param: gen_i:Pg	Qg	Qmax	Qmin	    Vg	mBase	gen_status	Pmax	Pmin :=
	1   0	0	10   	-10	        1 	100  	1	    10	    0
    5   0	0	10   	61.81e-2	        1 	100  	1	    10	    0
#    5   0	0	10   	20.65e-2	        1 	100  	1	    10	    0
;

param: branch : r	 x	    b	    rateA	rateB	rateC	ratio	angle	branch_status :=
	1	    2	   .04e2	 .09e2      0           250	    250	    250	    0	    0	    1
    1	    3	   .05e2	 .10e2      0           250	    250	    250	    0	    0	    1
	2	    4	   .55e2	 .90e2      .45e-2       250	    250	    250	    0	    0	    1
    3	    5	   .55e2	 .90e2      .45e-2       250	    250	    250	    0	    0	    1
    4	    5	   .06e2	 .1e2       0           250	    250	    250	    0	    0	    1
    2	    3	   .07e2	 .09e2      0           250	    250	    250	    0	    0	    1
;

param: c0 c1 c2 := 
  1 0 4 0
  5 0 1 0
  ;
